
pair_style mlip /path/to/the/folder/of/mlip.ini
pair_coeff * * mlip


group Na type 1
group O  type 2

group 1 type 1
group 2 type 2

mass 1 23.000
mass 2 16.000

